Gurobi Optimizer version 9.1.2 build v9.1.2rc0 (linux64)
Thread count: 36 physical cores, 72 logical processors, using up to 32 threads
Optimize a model with 12 rows, 57 columns and 590 nonzeros
Model fingerprint: 0xf32eec78
Model has 47 quadratic constraints
Coefficient statistics:
  Matrix range     [2e-05, 3e+00]
  QMatrix range    [1e+00, 1e+00]
  QLMatrix range   [1e+00, 1e+00]
  Objective range  [8e-03, 7e-01]
  Bounds range     [1e+00, 1e+00]
  RHS range        [1e+00, 1e+00]
Presolve removed 9 rows and 0 columns

Continuous model is non-convex -- solving as a MIP.

Presolve removed 9 rows and 0 columns
Presolve time: 0.00s
Presolved: 189 rows, 57 columns, 443 nonzeros
Presolved model has 47 bilinear constraint(s)
Variable types: 57 continuous, 0 integer (0 binary)

Root relaxation: objective -1.743721e+00, 44 iterations, 0.00 seconds

    Nodes    |    Current Node    |     Objective Bounds      |     Work
 Expl Unexpl |  Obj  Depth IntInf | Incumbent    BestBd   Gap | It/Node Time

     0     0   -1.74372    0   38          -   -1.74372      -     -    0s
H    0     0                       0.6147548   -1.74372   384%     -    0s
     0     0   -1.64739    0    1    0.61475   -1.64739   368%     -    0s
H    0     0                      -1.6450460   -1.64739  0.14%     -    0s
     0     0     cutoff    0        -1.64505   -1.64505  0.00%     -    0s

Cutting planes:
  RLT: 25
  BQP: 3

Explored 1 nodes (76 simplex iterations) in 0.01 seconds
Thread count was 32 (of 72 available processors)

Solution count 2: -1.64505 0.614755 
No other solutions better than -1.64505

Optimal solution found (tolerance 1.00e-04)
Best objective -1.645045978473e+00, best bound -1.645045978473e+00, gap 0.0000%

User-callback calls 78, time in user-callback 0.00 sec
Gurobi Optimizer version 9.1.2 build v9.1.2rc0 (linux64)
Thread count: 36 physical cores, 72 logical processors, using up to 32 threads
Optimize a model with 60 rows, 312 columns and 16100 nonzeros
Model fingerprint: 0x32a06db0
Model has 262 quadratic constraints
Coefficient statistics:
  Matrix range     [4e-07, 7e+00]
  QMatrix range    [1e+00, 1e+00]
  QLMatrix range   [1e+00, 1e+00]
  Objective range  [4e-03, 1e+00]
  Bounds range     [1e+00, 1e+00]
  RHS range        [1e+00, 1e+00]
Presolve removed 15 rows and 0 columns

Continuous model is non-convex -- solving as a MIP.

Presolve removed 15 rows and 0 columns
Presolve time: 0.01s
Presolved: 1081 rows, 312 columns, 13447 nonzeros
Presolved model has 262 bilinear constraint(s)
Variable types: 312 continuous, 0 integer (0 binary)

Root relaxation: objective -2.313621e+01, 338 iterations, 0.02 seconds

    Nodes    |    Current Node    |     Objective Bounds      |     Work
 Expl Unexpl |  Obj  Depth IntInf | Incumbent    BestBd   Gap | It/Node Time

     0     0  -23.13621    0   85          -  -23.13621      -     -    0s
     0     0  -22.29075    0   63          -  -22.29075      -     -    0s
     0     0  -22.27490    0   63          -  -22.27490      -     -    0s
     0     0  -22.17972    0  182          -  -22.17972      -     -    0s
     0     0  -22.17381    0  180          -  -22.17381      -     -    0s
     0     0  -22.16296    0  165          -  -22.16296      -     -    0s
     0     0  -22.16154    0  172          -  -22.16154      -     -    0s
     0     0  -22.15574    0   65          -  -22.15574      -     -    0s
     0     0  -22.15572    0   74          -  -22.15572      -     -    0s
     0     0  -22.15313    0   74          -  -22.15313      -     -    0s
     0     0  -22.15277    0   74          -  -22.15277      -     -    0s
     0     2  -22.15277    0   74          -  -22.15277      -     -    0s
* 2450  2004              69     -21.0890653  -21.59974  2.42%  37.2    1s
* 3235  1986              55     -21.2056753  -21.55820  1.66%  35.4    1s
* 3236  1986              55     -21.2056753  -21.55820  1.66%  35.4    1s
* 3405  1911              52     -21.2864766  -21.55820  1.28%  35.6    1s
* 5638   696              65     -21.2892084  -21.55820  1.26%  36.4    3s
* 5640   647              66     -21.2894626  -21.55820  1.26%  36.3    3s
* 5643   600              68     -21.2894704  -21.55820  1.26%  36.3    3s
* 5645   556              69     -21.2894705  -21.55820  1.26%  36.3    3s
* 5646   514              69     -21.2894710  -21.55820  1.26%  36.3    3s
* 5649   474              69     -21.2894712  -21.55820  1.26%  36.3    3s
* 5766   420              69     -21.2894716  -21.55820  1.26%  36.1    3s
* 5799   420              67     -21.2896269  -21.55820  1.26%  36.1    3s
* 6040   517              77     -21.2903026  -21.55820  1.26%  35.7    3s
* 6788   942              68     -21.2904253  -21.55820  1.26%  34.2    3s
* 6870  1071              99     -21.2904397  -21.55820  1.26%  34.0    3s
* 6900  1071              82     -21.2911001  -21.55820  1.25%  33.9    3s
* 6901  1071              82     -21.2911180  -21.55820  1.25%  33.9    3s
* 6904  1071              82     -21.2911214  -21.55820  1.25%  33.9    3s
* 7242  1316              88     -21.2913884  -21.55820  1.25%  33.2    3s
* 7474  1450              91     -21.2914478  -21.55820  1.25%  32.7    3s
* 7476  1450              89     -21.2914647  -21.55820  1.25%  32.7    3s
* 7719  1625              90     -21.2970127  -21.55820  1.23%  32.2    3s
* 7720  1625              90     -21.2970178  -21.55820  1.23%  32.2    3s
* 7721  1625              89     -21.2970197  -21.55820  1.23%  32.2    3s
* 7725  1625              90     -21.2970209  -21.55820  1.23%  32.2    3s
* 7726  1625              89     -21.2970252  -21.55820  1.23%  32.2    3s
* 7728  1625              88     -21.2970269  -21.55820  1.23%  32.2    3s
* 7729  1625              88     -21.2970317  -21.55820  1.23%  32.2    3s
* 7793  1625              75     -21.3012412  -21.55820  1.21%  32.0    3s
* 7794  1625              75     -21.3013655  -21.55820  1.21%  32.0    3s
* 8148  1778              90     -21.3060161  -21.55820  1.18%  31.2    3s
* 8200  1778              76     -21.3174248  -21.55820  1.13%  31.2    3s
* 8201  1778              76     -21.3174251  -21.55820  1.13%  31.1    3s
* 8724  1920              89     -21.3182772  -21.51845  0.94%  30.3    3s
* 9058  1976              59     -21.3183678  -21.51826  0.94%  29.7    4s
* 9311  1976              70     -21.3898266  -21.51826  0.60%  29.2    4s
* 9872  1938             100     -21.4200157  -21.51826  0.46%  28.4    4s
* 9875  1938             102     -21.4200159  -21.51826  0.46%  28.4    4s
*11087  1723              71     -21.4201538  -21.46163  0.19%  27.0    4s
*11090  1723              70     -21.4201609  -21.46163  0.19%  27.0    4s
*11552  1749              73     -21.4201614  -21.46163  0.19%  26.4    4s
*11559  1749              74     -21.4201615  -21.46163  0.19%  26.3    4s
*12049  1815              66     -21.4202859  -21.46163  0.19%  25.7    4s
*12482  1849              68     -21.4203596  -21.46163  0.19%  25.1    4s
 12827  1910     cutoff   51       -21.42036  -21.46163  0.19%  24.7    5s
*12860  1910              66     -21.4217859  -21.46163  0.19%  24.6    5s
*13483  1753              63     -21.4218870  -21.44763  0.12%  23.8    5s
*13484  1753              64     -21.4218915  -21.44763  0.12%  23.8    5s
*14285  1832              67     -21.4221844  -21.43760  0.07%  22.8    5s
*14402  1832              67     -21.4221911  -21.43760  0.07%  22.7    5s
*14454  1832              68     -21.4222757  -21.43760  0.07%  22.7    5s
*14909  1761              65     -21.4224848  -21.43760  0.07%  22.2    5s
*14913  1761              66     -21.4224855  -21.43760  0.07%  22.1    5s
*15375  1811              71     -21.4225246  -21.42920  0.03%  21.7    5s
*15638  1811              71     -21.4226536  -21.42920  0.03%  21.4    5s
*15639  1811              71     -21.4226554  -21.42920  0.03%  21.4    5s
*15794  1820              66     -21.4226839  -21.42742  0.02%  21.3    5s
*15821  1820              62     -21.4227740  -21.42742  0.02%  21.2    5s
*15827  1820              63     -21.4227880  -21.42742  0.02%  21.2    5s
*15937  1820              61     -21.4228558  -21.42742  0.02%  21.1    5s
*16488  1729              63     -21.4229822  -21.42579  0.01%  20.6    5s
*16491  1729              65     -21.4230497  -21.42579  0.01%  20.6    5s
*16567  1729              64     -21.4233089  -21.42579  0.01%  20.5    5s
*16568  1729              64     -21.4233092  -21.42579  0.01%  20.5    5s
*16578  1729              65     -21.4233602  -21.42579  0.01%  20.5    5s
*16581  1729              67     -21.4233624  -21.42579  0.01%  20.5    5s
*17159  1021              71     -21.4233866  -21.42559  0.01%  20.0    5s
*17303  1021              69     -21.4234283  -21.42559  0.01%  19.9    5s
*17530  1021              66     -21.4234530  -21.42559  0.01%  19.6    5s

Explored 18229 nodes (345760 simplex iterations) in 5.71 seconds
Thread count was 32 (of 72 available processors)

Solution count 10: -21.4235 -21.4234 -21.4234 ... -21.4228

Optimal solution found (tolerance 1.00e-04)
Best objective -2.142345302366e+01, best bound -2.142559348156e+01, gap 0.0100%

User-callback calls 37472, time in user-callback 0.01 sec



objective value: -21.423453023657814
objective bound: -21.42559348156453
x_opt: [0.988401236592616, 1.0, 0.0, 0.3576654495685292, 0.0, 0.0, 1.0, 0.0, 0.0, 0.0, 1.0, 4.89226958800954e-5, 1.0, 1.0, 0.12470599617965027, 1.0, 0.0, 1.0, 0.0, 0.0, 1.0, 0.6974469507514349, 0.0, 0.8304066045610891, 0.0, 0.8218885626479339, 0.0, 1.0, 0.0, 0.0, 1.0, 0.8912765926108545, 0.0, 0.37667480728924635, 1.0, 1.0, 0.061085581474690905, 1.0, 0.0, 0.8042229852296534, 1.0, 0.0, 1.0, 0.0, 0.0, 0.08739616436469924, 0.9254281436530638, 0.0, 0.9999449621702362, 0.17638007532782302]
GUROBI solution time: 5.710385084152222




